\ This file has been generated by DOcplex
\ ENCODING=ISO-8859-1
\Problem name: MaximumIndependentSet

Minimize
 obj: - x_0 - x_1 - x_2 - x_3 - x_4 - x_5 - x_6 - x_7 - x_8 - x_9 - x_10 - x_11
      - x_12 - x_13 - x_14 - x_15 - x_16 - x_17 - x_18 - x_19 - x_20 - x_21
      - x_22 - x_23 - x_24 - x_25 - x_26 - x_27 - x_28 - x_29 - x_30 - x_31 + [
      66 x_1*x_2 + 66 x_1*x_4 + 66 x_2*x_4 + 66 x_2*x_8 + 66 x_3*x_5
      + 66 x_3*x_6 + 66 x_3*x_9 + 66 x_4*x_8 + 66 x_4*x_16 + 66 x_5*x_6
      + 66 x_5*x_9 + 66 x_5*x_10 + 66 x_5*x_17 + 66 x_6*x_9 + 66 x_6*x_10
      + 66 x_6*x_12 + 66 x_6*x_18 + 66 x_7*x_11 + 66 x_7*x_13 + 66 x_7*x_19
      + 66 x_8*x_16 + 66 x_9*x_10 + 66 x_9*x_12 + 66 x_9*x_17 + 66 x_9*x_18
      + 66 x_10*x_12 + 66 x_10*x_17 + 66 x_10*x_18 + 66 x_10*x_20 + 66 x_11*x_13
      + 66 x_11*x_14 + 66 x_11*x_19 + 66 x_11*x_21 + 66 x_12*x_18 + 66 x_12*x_20
      + 66 x_12*x_24 + 66 x_13*x_14 + 66 x_13*x_19 + 66 x_13*x_21 + 66 x_13*x_22
      + 66 x_13*x_25 + 66 x_14*x_21 + 66 x_14*x_22 + 66 x_14*x_26 + 66 x_15*x_23
      + 66 x_15*x_27 + 66 x_17*x_18 + 66 x_17*x_20 + 66 x_18*x_20 + 66 x_18*x_24
      + 66 x_19*x_21 + 66 x_19*x_22 + 66 x_19*x_25 + 66 x_20*x_24 + 66 x_21*x_22
      + 66 x_21*x_25 + 66 x_21*x_26 + 66 x_22*x_25 + 66 x_22*x_26 + 66 x_22*x_28
      + 66 x_23*x_27 + 66 x_23*x_29 + 66 x_25*x_26 + 66 x_25*x_28 + 66 x_26*x_28
      + 66 x_27*x_29 + 66 x_27*x_30 + 66 x_29*x_30 ]/2
Subject To

Bounds
 0 <= x_0 <= 1
 0 <= x_1 <= 1
 0 <= x_2 <= 1
 0 <= x_3 <= 1
 0 <= x_4 <= 1
 0 <= x_5 <= 1
 0 <= x_6 <= 1
 0 <= x_7 <= 1
 0 <= x_8 <= 1
 0 <= x_9 <= 1
 0 <= x_10 <= 1
 0 <= x_11 <= 1
 0 <= x_12 <= 1
 0 <= x_13 <= 1
 0 <= x_14 <= 1
 0 <= x_15 <= 1
 0 <= x_16 <= 1
 0 <= x_17 <= 1
 0 <= x_18 <= 1
 0 <= x_19 <= 1
 0 <= x_20 <= 1
 0 <= x_21 <= 1
 0 <= x_22 <= 1
 0 <= x_23 <= 1
 0 <= x_24 <= 1
 0 <= x_25 <= 1
 0 <= x_26 <= 1
 0 <= x_27 <= 1
 0 <= x_28 <= 1
 0 <= x_29 <= 1
 0 <= x_30 <= 1
 0 <= x_31 <= 1

Binaries
 x_0 x_1 x_2 x_3 x_4 x_5 x_6 x_7 x_8 x_9 x_10 x_11 x_12 x_13 x_14 x_15 x_16 x_17
 x_18 x_19 x_20 x_21 x_22 x_23 x_24 x_25 x_26 x_27 x_28 x_29 x_30 x_31
End
